nbProcess=4;
nbJobs =15;
nbMchs =10;
Process1=[4,4,4,4,4,4,4,4,4,4,4,4,4,4,4];
pidle=[1,2,3,1,2,3,1,2,3,1];
EnergyS=[10,30,60,10,30,60,10,20,30,60];
TB=[10,15,20,10,15,20,10,20,15,20];
x=
[
[ [1 1 1 1] [1 1 1 1] [1 1 1 1] [1 1 1 1] [1 1 1 1] [1 1 0 0] [1 1 0 0] [1 1 1 1] [1 1 1 1] [1 1 1 1] [1 1 1 1] [1 1 1 1] [1 1 1 1] [1 1 1 1] [1 1 1 1] ]
[ [1 1 1 1] [1 1 1 1] [1 1 1 1] [1 1 1 1] [1 1 1 1] [1 1 0 0] [1 1 0 0] [1 1 1 1] [1 1 1 1] [1 1 1 1] [1 1 1 1] [1 1 1 1] [1 1 1 1] [1 1 1 1] [1 1 1 1] ]
[ [1 1 1 1] [1 1 1 1] [1 1 1 1] [1 1 1 1] [1 1 1 1] [1 1 0 0] [1 1 0 0] [1 1 1 1] [1 1 1 1] [1 1 1 1] [1 1 1 1] [1 1 1 1] [1 1 1 1] [1 1 1 1] [1 1 1 1] ]
[ [1 1 1 1] [1 1 1 1] [1 1 1 1] [1 1 1 1] [1 1 1 1] [1 1 0 0] [1 1 0 0] [1 1 1 1] [1 1 1 1] [1 1 1 1] [1 1 1 1] [1 1 1 1] [1 1 1 1] [1 1 1 1] [1 1 1 1] ]
[ [1 1 1 1] [1 1 1 1] [1 1 1 1] [1 1 1 1] [1 1 1 1] [1 1 0 0] [1 1 0 0] [1 1 1 1] [1 1 1 1] [1 1 1 1] [1 1 1 1] [1 1 1 1] [1 1 1 1] [1 1 1 1] [1 1 1 1] ]
[ [1 1 1 1] [1 1 1 1] [1 1 1 1] [1 1 1 1] [1 1 1 1] [1 1 0 0] [1 1 0 0] [1 1 1 1] [1 1 1 1] [1 1 1 1] [1 1 1 1] [1 1 1 1] [1 1 1 1] [1 1 1 1] [1 1 1 1] ]
[ [1 1 1 1] [1 1 1 1] [1 1 1 1] [1 1 1 1] [1 1 1 1] [1 1 0 0] [1 1 0 0] [1 1 1 1] [1 1 1 1] [1 1 1 1] [1 1 1 1] [1 1 1 1] [1 1 1 1] [1 1 1 1] [1 1 1 1] ]
[ [1 1 1 1] [1 1 1 1] [1 1 1 1] [1 1 1 1] [1 1 1 1] [1 1 0 0] [1 1 0 0] [1 1 1 1] [1 1 1 1] [1 1 1 1] [1 1 1 1] [1 1 1 1] [1 1 1 1] [1 1 1 1] [1 1 1 1] ]
[ [1 1 1 1] [1 1 1 1] [1 1 1 1] [1 1 1 1] [1 1 1 1] [1 1 0 0] [1 1 0 0] [1 1 1 1] [1 1 1 1] [1 1 1 1] [1 1 1 1] [1 1 1 1] [1 1 1 1] [1 1 1 1] [1 1 1 1] ]
[ [1 1 1 1] [1 1 1 1] [1 1 1 1] [1 1 1 1] [1 1 1 1] [1 1 0 0] [1 1 0 0] [1 1 1 1] [1 1 1 1] [1 1 1 1] [1 1 1 1] [1 1 1 1] [1 1 1 1] [1 1 1 1] [1 1 1 1] ]
];

ptime =
[
[ [1 1 2 10] [4 6 8 9] [7 5 4 7] [6 8 9 11] [6 5 6 6] [4 1 0 0] [1 2 0 0] [2 4 3 1] [6 2 20 9] [5 2 6 3] [1 2 3 4] [9 5 12 8] [4 3 5 3] [2 6 3 8] [2 5 4 6] ]
[ [4 1 5 4] [8 11 5 3] [1 10 2 3] [2 5 6 4] [9 4 2 5] [1 3 0 0] [4 1 0 0] [3 5 5 2] [3 3 17 8] [8 5 3 2] [2 3 6 1] [8 8 5 7] [2 5 4 2] [3 2 25 5] [5 6 5 2] ]
[ [6 3 1 5] [7 2 8 6] [8 6 3 12] [5 7 2 5] [2 6 4 4] [3 6 0 0] [2 4 0 0] [6 6 4 36] [2 2 12 7] [7 6 2 5] [3 6 2 45] [5 9 4 9] [5 4 5 5] [5 4 4 6] [6 2 2 11] ]
[ [9 4 5 9] [1 7 9 1] [5 4 8 1] [4 4 4 6] [3 3 3 2] [2 5 0 0] [5 5 0 0] [2 2 2 5] [22 12 5 4] [4 9 5 6] [6 3 5 6] [6 5 6 5] [6 7 8 6] [4 5 8 4] [8 5 3 14] ]
[ [3 8 6 8] [9 5 4 2] [4 9 7 6] [1 1 5 2] [5 5 6 3] [6 4 0 0] [3 2 0 0] [5 3 5 2] [44 15 9 5] [56 8 4 5] [5 2 8 2] [3 4 3 6] [8 5 5 5] [6 8 5 2] [5 4 5 2] ]
[ [5 10 9 4] [6 3 3 6] [9 5 4 5] [2 2 1 7] [8 2 5 2] [9 7 0 0] [6 3 0 0] [4 5 49 3] [11 10 6 8] [3 5 7 8] [2 1 4 4] [6 75 2 3] [5 8 4 4] [5 6 6 3] [6 2 2 3] ]
[ [2 4 5 15] [1 5 5 4] [1 1 6 8] [3 36 3 5] [7 28 2 5] [8 5 0 0] [9 5 0 0] [1 4 8 6] [10 12 4 7] [2 4 4 7] [1 4 6 1] [5 63 5 2] [6 6 6 8] [4 5 3 6] [3 5 8 6] ]
[ [8 11 10 8] [10 14 3 1] [2 7 9 3] [6 5 6 4] [4 7 4 4] [5 4 0 0] [8 4 0 0] [5 1 5 4] [23 14 7 4] [5 2 5 4] [4 10 3 25] [2 6 4 5] [4 6 5 5] [85 4 2 8] [2 3 4 5] ]
[ [9 4 3 4] [7 9 8 7] [3 1 8 5] [5 8 5 2] [1 4 7 7] [4 6 0 0] [5 2 0 0] [8 2 4 11] [5 18 5 56] [4 5 2 5] [2 12 2 2] [4 5 2 8] [6 3 4 6] [4 2 5 5] [5 2 7 4] ]
[ [4 3 2 4] [1 2 1 2] [4 6 4 2] [4 5 2 1] [2 5 9 5] [2 5 0 0] [4 5 0 0] [7 5 5 2] [1 16 6 2] [1 4 1 2] [1 1 5 4] [2 21 5 4] [2 2 2 4] [5 6 4 4] [4 5 5 8] ]
];
power1=
[
[ [4.7 4.7 3.8 4 ] [3.4 4.1 4.6 3 ] [4 4.4 4.6 3.8 ] [4.8 3.8 3.6 4.5 ] [3 4.7 4.1 3.6 ] [4.8 3 0 0 ] [3.8 4.1 0 0 ] [5 3.2 4.6 3.8 ] [5 5 3.7 3.7 ] [5 4.6 3.5 4.9 ] [4.9 5 3.4 4.8 ] [4.6 3.7 4.7 3.2 ] [3.8 4.9 4.7 3.3 ] [4.4 3.9 4.5 4.6 ] [4.9 3.7 4.2 3.4 ] ]
[ [4.6 3.4 3 4 ] [3.6 3.9 4.4 3.3 ] [5 4.6 4.8 3 ] [4.7 4.2 4.8 4 ] [4.8 4.8 4.9 4.8 ] [3.6 4.4 0 0 ] [4.5 3.3 0 0 ] [3 4 4.4 3.8 ] [3.2 3.9 4.8 4.1 ] [4.9 3.6 4.5 4.6 ] [3.9 4.6 3.3 4.1 ] [4.9 3.6 4.3 3.8 ] [4.7 3.5 3.6 4 ] [4.5 4.7 3.7 4.1 ] [4 4.3 4.4 4.5 ] ]
[ [4 4.5 3.8 3.4 ] [3.3 4.5 3.6 3.4 ] [4.3 3.5 3 4 ] [4.2 4.5 4.3 4.4 ] [4.7 3.4 4.6 4.2 ] [3.3 3.3 0 0 ] [4.7 4 0 0 ] [5 3.9 3.1 3.1 ] [4 4.5 3.6 4.6 ] [4.1 4.6 3.7 4.7 ] [3.9 3.6 4.4 3.7 ] [4.9 4.6 3.2 4.3 ] [3 4 4.5 3.7 ] [3.8 3.4 4.4 4 ] [3.9 3.2 4.1 3.4 ] ]
[ [4.4 3.6 3.3 4.2 ] [4 4.4 4.2 4.8 ] [4 4.5 3.3 4.2 ] [3 4.7 5 4.1 ] [4.5 3.4 3.4 3.5 ] [4.2 3.4 0 0 ] [4 3 0 0 ] [5 4.2 4.8 5 ] [3.1 3.5 3.6 3.9 ] [5 3.6 4.5 4.4 ] [4.7 3 3.9 4.8 ] [3.9 4.7 3 4.7 ] [4.7 3.1 4.8 4.8 ] [3.4 3.9 4.7 4.1 ] [3.7 4.3 4 4.6 ] ]
[ [3.7 3.9 3 4.8 ] [4.8 3.4 4.6 3.1 ] [3.1 4.9 3.3 3.9 ] [3 4.8 3.8 3 ] [4.2 4.9 3.4 4.1 ] [3 4.3 0 0 ] [4.6 4.6 0 0 ] [4.7 4.2 3.5 3.5 ] [3.8 3.6 3.9 4.2 ] [4.6 4.9 4.3 3.4 ] [3.9 3.2 4.8 4.4 ] [4 4.5 3.7 4.5 ] [4.1 3.1 4.9 4.7 ] [3.5 4.3 3.6 3.4 ] [4.6 5 3.7 3.8 ] ]
[ [4.9 4.7 3.7 4.1 ] [4.8 4.4 3.7 4.8 ] [3.9 4.1 3.6 5 ] [4.4 4.7 3.3 3.9 ] [4.9 4.9 3.7 3.8 ] [3.1 3 0 0 ] [3.2 4.7 0 0 ] [4.5 3.2 3.7 3.6 ] [4.5 3 3.5 3.7 ] [4.4 4.2 4.9 3.4 ] [4.1 4.1 3.5 4 ] [4.1 4.3 4.9 4.1 ] [3.3 3.2 4.3 3.8 ] [3.9 3.6 5 3.2 ] [3.1 3.5 3.5 4.9 ] ]
[ [4.6 5 3.7 4 ] [4.3 4.5 3 3.1 ] [3.5 3.9 4.6 5 ] [3.1 3.8 4.2 4.4 ] [4.1 3 3.2 3.7 ] [3.8 3.1 0 0 ] [3.9 3.6 0 0 ] [4.4 4.4 5 4.1 ] [4.8 4.4 4.9 3.5 ] [3.1 4.6 4.1 4.7 ] [3 4.8 3.6 3.5 ] [3.9 4.3 4.5 4.2 ] [3.3 3 4.6 3.2 ] [3.4 3.6 3.9 3.1 ] [4.5 4.3 3.6 3.2 ] ]
[ [4 3.5 4 4.6 ] [3.6 3.7 3.7 3.5 ] [3.3 4.7 4.5 4.6 ] [4.3 4.3 3.1 3 ] [4.6 4.6 3.9 4.7 ] [3.8 4.7 0 0 ] [4.8 3.7 0 0 ] [3.3 3.5 3.8 3.5 ] [3.4 3.4 4.6 3.5 ] [4.2 3.2 4.4 4.7 ] [4.6 4.4 4.2 3.3 ] [3 3.5 3.8 4.7 ] [4.4 4.4 4.9 3 ] [3.2 3.5 4.4 3.8 ] [4.9 4.1 4.9 4.6 ] ]
[ [3.5 4.5 3 4.9 ] [4.8 4 4.2 4.2 ] [4.4 3.9 4.7 4.1 ] [4.5 3.3 3.7 4.4 ] [3.2 3 3.3 3.3 ] [3.9 3.8 0 0 ] [5 3.5 0 0 ] [3.7 3.5 4.7 3.4 ] [4 4.7 4.1 4.3 ] [3 5 5 4.4 ] [4.7 4.7 4.1 4.4 ] [4.5 3.9 4.7 4.7 ] [3.2 4.1 4.5 4.9 ] [5 3 4 3.3 ] [3 3.3 3.7 4.6 ] ]
[ [4 3.7 4.3 4 ] [4.9 4.5 5 4.5 ] [3.3 4.3 4.4 3 ] [3.9 3.6 4.8 4.9 ] [4.2 4.2 3.7 3 ] [5 3.1 0 0 ] [3.6 4.3 0 0 ] [5 4.9 4.3 3.9 ] [4.3 4 4 3 ] [4.4 3 3.9 4.2 ] [3.8 4.6 3 3.7 ] [3.4 3.6 4.1 4.6 ] [3.1 4.9 3.6 4.9 ] [4.4 3.9 4.9 3.2 ] [3.3 4.5 4.2 3.7 ] ]
];
